WARNING: for repeatability, setting FPU to use double precision
============================[ Problem Statistics ]=============================
|                                                                             |
|  Number of variables:           100                                         |
|  Number of clauses:             449                                         |
|  Parse time:                   0.00 s                                       |
|  Eliminated clauses:           0.00 Mb                                      |
|  Simplification time:          0.00 s                                       |
|                                                                             |
============================[ Search Statistics ]==============================
| Conflicts |          ORIGINAL         |          LEARNT          | Progress |
|           |    Vars  Clauses Literals |    Limit  Clauses Lit/Cl |          |
===============================================================================
|       100 |      98      446     1352 |      163      100      7 |  0.011 % |
|       250 |      98      446     1352 |      179      167      6 |  0.010 % |
===============================================================================
restarts              : 3
conflicts             : 285            (97303 /sec)
decisions             : 338            (0.00 % random) (115398 /sec)
propagations          : 6309           (2153977 /sec)
conflict literals     : 1883           (18.84 % deleted)
Memory used           : 13.00 MB
CPU time              : 0.002929 s

SATISFIABLE
